Geometry = GenFormat {
<<< "test.txt"
}

<<! "test.hsd"

Test[unit=1,
    dim=3]{}
Hamiltonian = DFTB {
  SCC = Yes
  SCCTolerance = 1.0E-007
  MaxSCCIterations = 1000
  Mixer = Broyden {}
  MaxAngularMomentum {
    Ga = "d"
    As = "p"
  }
  Filling = Fermi {
    Temperature [Kelvin] = 1.0E-006
  }
  SlaterKosterFiles [format=old] {
    Ga-Ga = "./Ga-Ga.skf"
    Ga-As = "./Ga-As.skf"
    As-Ga = "./As-Ga.skf"
    As-As = "./As-As.skf"
  }
  KPointsAndWeights { <<@real:2:3,2
    0.0 0.0 0.0   1.0
  }
}
Options {
  AtomResolvedEnergies = No
  RestartFrequency = 20
  RandomSeed = 0
  WriteHS = No
}
